<?xml version = "1.0" standalone="yes"?>
<!-- This file has been generated by DOcplex version 2.23.222  -->
<CPLEXSolution version="1.0">
 <header
   problemName="CVRP"
   objectiveValue="22158.4"
  />
 <variables>
  <variable name="x_0_2" index="1" value="1.00000"/>
  <variable name="x_0_3" index="2" value="1.00000"/>
  <variable name="x_0_4" index="3" value="1.00000"/>
  <variable name="x_0_6" index="5" value="1.00000"/>
  <variable name="x_0_7" index="6" value="1.00000"/>
  <variable name="x_0_9" index="8" value="1.00000"/>
  <variable name="x_0_11" index="10" value="1.00000"/>
  <variable name="x_0_12" index="11" value="1.00000"/>
  <variable name="x_0_13" index="12" value="1.00000"/>
  <variable name="x_0_19" index="18" value="1.00000"/>
  <variable name="x_0_21" index="20" value="1.00000"/>
  <variable name="x_0_23" index="22" value="1.00000"/>
  <variable name="x_0_25" index="24" value="1.00000"/>
  <variable name="x_0_27" index="26" value="1.00000"/>
  <variable name="x_1_0" index="29" value="1.00000"/>
  <variable name="x_2_0" index="58" value="1.00000"/>
  <variable name="x_3_10" index="96" value="1.00000"/>
  <variable name="x_4_5" index="120" value="1.00000"/>
  <variable name="x_5_0" index="145" value="1.00000"/>
  <variable name="x_6_22" index="195" value="1.00000"/>
  <variable name="x_7_29" index="231" value="1.00000"/>
  <variable name="x_8_17" index="248" value="1.00000"/>
  <variable name="x_9_26" index="286" value="1.00000"/>
  <variable name="x_10_1" index="291" value="1.00000"/>
  <variable name="x_11_0" index="319" value="1.00000"/>
  <variable name="x_12_14" index="361" value="1.00000"/>
  <variable name="x_13_28" index="404" value="1.00000"/>
  <variable name="x_14_0" index="406" value="1.00000"/>
  <variable name="x_15_0" index="435" value="1.00000"/>
  <variable name="x_16_20" index="483" value="1.00000"/>
  <variable name="x_17_0" index="493" value="1.00000"/>
  <variable name="x_18_24" index="545" value="1.00000"/>
  <variable name="x_19_18" index="569" value="1.00000"/>
  <variable name="x_20_0" index="580" value="1.00000"/>
  <variable name="x_21_16" index="625" value="1.00000"/>
  <variable name="x_22_0" index="638" value="1.00000"/>
  <variable name="x_23_0" index="667" value="1.00000"/>
  <variable name="x_24_0" index="696" value="1.00000"/>
  <variable name="x_25_15" index="740" value="1.00000"/>
  <variable name="x_26_0" index="754" value="1.00000"/>
  <variable name="x_27_8" index="791" value="1.00000"/>
  <variable name="x_28_0" index="812" value="1.00000"/>
  <variable name="x_29_0" index="841" value="1.00000"/>
  <variable name="u_1" index="870" value="34.00000"/>
  <variable name="u_2" index="871" value="34.00000"/>
  <variable name="u_3" index="872" value="13.00000"/>
  <variable name="u_4" index="873" value="19.00000"/>
  <variable name="u_5" index="874" value="34.00000"/>
  <variable name="u_6" index="875" value="27.00000"/>
  <variable name="u_7" index="876" value="30.00000"/>
  <variable name="u_8" index="877" value="20.00000"/>
  <variable name="u_9" index="878" value="28.00000"/>
  <variable name="u_10" index="879" value="33.00000"/>
  <variable name="u_11" index="880" value="15.00000"/>
  <variable name="u_12" index="881" value="24.00000"/>
  <variable name="u_13" index="882" value="24.00000"/>
  <variable name="u_14" index="883" value="33.00000"/>
  <variable name="u_15" index="884" value="34.00000"/>
  <variable name="u_16" index="885" value="22.00000"/>
  <variable name="u_17" index="886" value="32.00000"/>
  <variable name="u_18" index="887" value="11.00000"/>
  <variable name="u_19" index="888" value="1.00000"/>
  <variable name="u_20" index="889" value="34.00000"/>
  <variable name="u_21" index="890" value="5.00000"/>
  <variable name="u_22" index="891" value="34.00000"/>
  <variable name="u_23" index="892" value="29.00000"/>
  <variable name="u_24" index="893" value="33.00000"/>
  <variable name="u_25" index="894" value="9.00000"/>
  <variable name="u_26" index="895" value="34.00000"/>
  <variable name="u_27" index="896" value="9.00000"/>
  <variable name="u_28" index="897" value="34.00000"/>
  <variable name="u_29" index="898" value="32.00000"/>
 </variables>
</CPLEXSolution>
